% seed = 0

mint = 38;
% maxt = 181;

nActs = 62;
dur = [0,3,2,2,4,1,3,3,4,6,2,4,4,5,5,3,4,2,3,5,4,6,2,3,4,2,4,1,1,1,2,3,2,3,4,3,1,4,3,2,4,3,4,1,6,2,1,6,4,1,4,1,1,4,3,2,2,3,2,5,2,0];

nSkills = 9;
sreq = [| 0,0,0,0,0,0,0,0,0,
	| 0,0,0,0,0,0,1,0,0,
	| 0,0,0,0,0,1,0,0,0,
	| 0,0,0,0,1,0,0,1,0,
	| 0,0,0,0,0,1,0,1,0,
	| 0,0,0,0,0,0,0,1,0,
	| 0,0,0,0,1,0,1,0,0,
	| 0,0,0,0,0,1,0,0,0,
	| 0,0,0,0,0,1,0,2,0,
	| 0,0,0,0,0,0,0,1,0,
	| 0,0,1,0,0,0,0,1,0,
	| 0,0,0,1,0,0,0,0,0,
	| 0,0,0,0,1,0,0,1,0,
	| 0,0,0,0,0,0,0,1,0,
	| 0,0,0,0,0,1,0,1,0,
	| 0,0,0,0,0,0,0,1,0,
	| 0,0,0,2,0,0,0,1,0,
	| 0,0,0,0,0,0,1,0,0,
	| 0,0,0,1,0,0,0,0,0,
	| 0,0,0,0,1,0,1,0,0,
	| 0,0,0,0,0,0,1,1,0,
	| 0,0,0,0,0,1,1,1,0,
	| 0,0,0,0,0,0,0,1,0,
	| 0,0,0,0,1,0,2,0,0,
	| 0,0,0,0,0,0,0,2,0,
	| 0,0,0,0,2,0,0,0,0,
	| 0,0,0,1,0,0,0,2,0,
	| 0,0,0,0,0,0,0,2,0,
	| 0,0,0,0,1,0,0,0,0,
	| 0,0,0,0,0,1,0,1,0,
	| 0,0,0,0,0,0,0,1,0,
	| 1,0,0,0,0,0,0,1,0,
	| 0,0,0,0,0,0,1,0,0,
	| 0,0,0,2,0,0,0,1,0,
	| 0,0,0,0,0,1,2,0,0,
	| 0,0,0,0,1,0,2,0,0,
	| 0,0,0,0,0,0,0,1,0,
	| 0,0,0,0,1,0,1,0,0,
	| 0,0,1,1,0,0,1,0,0,
	| 0,0,0,0,0,0,0,1,0,
	| 0,0,0,0,0,0,2,0,0,
	| 0,0,0,0,0,0,1,2,0,
	| 0,0,0,0,1,0,2,0,1,
	| 0,0,0,0,0,1,0,0,0,
	| 0,0,0,0,0,0,1,0,0,
	| 0,0,0,0,1,0,1,0,0,
	| 0,0,0,0,0,0,1,1,0,
	| 0,0,0,0,0,1,0,1,0,
	| 0,0,0,0,0,1,1,1,0,
	| 0,0,0,0,0,0,1,1,0,
	| 0,0,0,1,1,0,1,0,0,
	| 0,1,0,0,0,0,1,1,0,
	| 0,1,0,0,0,0,1,0,0,
	| 0,0,0,0,2,0,0,0,0,
	| 0,0,0,0,0,1,0,1,0,
	| 0,0,0,0,0,1,0,1,0,
	| 0,0,0,0,0,0,0,2,0,
	| 0,0,0,0,0,1,0,0,0,
	| 0,0,0,0,0,0,0,1,0,
	| 0,0,0,0,0,0,0,1,0,
	| 0,0,0,0,0,0,0,1,0,
	| 0,0,0,0,0,0,0,0,0, |];

% SumOfsreq = 113;

nResources = 11;
mastery = [| false,false,false,true,true,true,false,false,false,
	| false,false,false,false,false,false,true,true,true,
	| false,false,false,false,false,false,true,true,true,
	| false,false,false,false,false,false,false,true,true,
	| false,false,false,false,false,false,true,true,true,
	| false,false,false,false,false,false,true,true,true,
	| true,true,true,false,true,true,false,false,false,
	| false,false,false,true,true,true,false,false,true,
	| false,false,false,true,true,true,false,false,false,
	| false,false,false,false,false,false,true,true,true,
	| false,true,true,false,false,false,false,false,false, |];

nPrecs = 112;
pred = [1,1,1,2,2,2,3,3,3,4,4,4,5,5,5,6,6,6,7,7,8,8,9,10,10,10,11,12,12,12,13,14,14,14,15,16,16,16,17,17,17,18,18,18,19,20,20,20,21,21,21,22,22,22,23,23,24,25,26,27,28,28,29,29,29,30,30,31,31,32,33,34,35,35,36,36,37,37,37,38,38,39,40,40,41,42,43,44,44,45,46,46,47,48,48,49,49,49,50,51,52,52,53,54,55,56,56,57,58,59,60,61];
succ = [2,3,4,21,6,14,10,5,8,41,12,7,9,34,53,11,43,22,22,46,29,16,17,18,44,45,15,13,30,15,42,36,29,23,16,20,37,56,19,27,32,48,39,24,28,61,35,53,25,28,48,26,44,24,25,44,40,47,45,42,31,40,49,55,39,51,39,35,61,33,56,43,42,54,43,38,57,46,47,41,45,52,52,61,50,46,58,50,53,54,58,55,51,49,55,50,51,52,59,60,57,56,54,57,59,59,60,58,60,62,62,62];

nUnrels = 1128;
unpred = [2,2,2,2,2,2,2,2,2,2,2,2,2,2,2,2,2,3,3,3,3,3,3,3,3,3,3,3,3,3,3,3,3,3,4,4,4,4,4,4,4,4,4,4,4,4,4,4,4,4,4,4,4,4,4,4,4,4,4,5,5,5,5,5,5,5,5,5,5,5,5,5,5,5,5,5,5,5,5,5,5,5,5,5,5,5,5,5,5,5,5,6,6,6,6,6,6,6,6,6,6,6,6,6,6,6,6,6,6,6,6,6,6,6,6,6,6,6,7,7,7,7,7,7,7,7,7,7,7,7,7,7,7,7,7,7,7,7,7,7,7,7,7,7,7,7,7,7,7,7,7,7,7,7,8,8,8,8,8,8,8,8,8,8,8,8,8,8,8,8,8,8,8,8,8,8,8,8,8,8,8,8,8,8,8,9,9,9,9,9,9,9,9,9,9,9,9,9,9,9,9,9,9,9,9,9,9,9,9,9,9,9,9,9,9,9,9,10,10,10,10,10,10,10,10,10,10,10,10,10,10,10,10,10,10,10,10,10,10,10,10,10,10,10,10,10,10,10,11,11,11,11,11,11,11,11,11,11,11,11,11,11,11,11,11,11,11,11,11,11,11,11,11,11,11,11,11,11,11,11,12,12,12,12,12,12,12,12,12,12,12,12,12,12,12,12,12,12,12,12,12,12,12,12,12,12,12,13,13,13,13,13,13,13,13,13,13,13,13,13,13,13,13,13,13,13,13,13,13,13,13,13,13,13,13,13,13,13,13,13,13,13,13,13,13,13,13,13,13,14,14,14,14,14,14,14,14,14,14,14,14,14,14,14,14,14,14,14,14,14,14,14,14,15,15,15,15,15,15,15,15,15,15,15,15,15,15,15,15,15,15,15,15,15,15,15,15,15,15,15,15,15,16,16,16,16,16,16,16,16,16,16,16,16,16,16,16,16,16,16,16,16,16,16,16,16,16,16,16,16,16,17,17,17,17,17,17,17,17,17,17,17,17,17,17,17,17,17,17,17,17,17,17,17,17,17,18,18,18,18,18,18,18,18,18,18,18,18,18,18,18,18,18,18,18,18,18,18,18,18,18,18,18,18,19,19,19,19,19,19,19,19,19,19,19,19,19,19,19,19,19,19,19,19,19,19,19,19,19,19,19,20,20,20,20,20,20,20,20,20,20,20,20,20,20,20,20,20,20,20,20,20,20,20,20,20,20,20,20,20,20,21,21,21,21,21,21,21,21,21,21,21,21,21,21,21,21,21,21,21,22,22,22,22,22,22,22,22,22,22,22,22,22,22,22,22,22,22,22,22,22,22,22,22,23,23,23,23,23,23,23,23,23,23,23,23,23,23,23,23,23,23,23,23,23,23,23,23,23,23,23,24,24,24,24,24,24,24,24,24,24,24,24,24,24,24,24,24,24,24,24,24,24,24,24,24,24,24,24,24,25,25,25,25,25,25,25,25,25,25,25,25,25,25,25,25,25,25,25,25,25,25,25,25,25,25,25,25,25,25,25,25,25,26,26,26,26,26,26,26,26,26,26,26,26,26,26,26,26,26,26,26,26,26,26,26,26,26,26,26,26,26,26,27,27,27,27,27,27,27,27,27,27,27,27,27,27,27,27,27,27,27,27,27,27,27,27,27,27,27,27,28,28,28,28,28,28,28,28,28,28,28,28,28,28,28,28,28,28,28,29,29,29,29,29,29,29,29,29,29,29,29,29,29,29,29,29,29,29,29,29,30,30,30,30,30,30,30,30,30,30,30,30,30,30,30,30,30,30,30,30,30,30,30,31,31,31,31,31,31,31,31,31,31,31,31,31,31,31,31,31,31,31,31,32,32,32,32,32,32,32,32,32,32,32,32,32,32,32,32,32,32,32,32,32,32,32,32,32,33,33,33,33,33,33,33,33,33,33,33,33,33,33,33,33,33,33,33,33,33,33,33,33,33,34,34,34,34,34,34,34,34,34,34,34,34,34,34,34,34,34,34,34,34,34,34,34,34,35,35,35,35,35,35,35,35,35,35,35,35,35,35,35,35,35,35,36,36,36,36,36,36,36,36,36,36,36,36,36,36,36,37,37,37,37,37,37,37,37,37,37,37,37,37,37,37,37,38,38,38,38,38,38,38,38,38,38,38,38,38,38,38,39,39,39,39,39,39,39,39,39,39,39,39,39,39,39,39,40,40,40,40,40,40,40,40,40,40,40,40,40,40,41,41,41,41,41,41,41,41,41,41,41,41,41,41,41,41,41,41,42,42,42,42,42,42,42,42,42,42,42,42,42,42,43,43,43,43,43,43,43,43,43,43,43,43,43,43,43,43,44,44,44,44,44,44,44,44,44,44,45,45,45,45,45,45,45,45,45,45,45,45,46,46,46,46,46,46,46,46,46,46,46,47,47,47,47,47,47,47,47,47,47,47,47,48,48,48,49,49,49,49,50,50,50,50,50,50,50,50,50,50,51,51,51,51,51,51,51,51,51,52,52,52,52,53,53,53,53,54,54,54,54,55,55,55,55,55,56,56,56,57,57,58,58,59,59,60];
unsucc = [3,4,5,7,8,9,10,12,13,17,18,19,27,30,32,33,34,4,6,7,11,12,13,14,15,21,22,23,25,26,30,36,38,41,5,6,8,9,10,11,14,17,18,19,21,23,25,27,28,29,31,32,33,34,36,38,43,48,49,6,7,8,10,11,12,13,14,15,16,18,20,21,22,23,24,25,26,29,30,36,37,38,39,41,44,45,47,48,49,50,51,7,8,9,10,12,13,14,17,18,19,21,23,25,27,28,29,30,31,32,33,34,36,38,39,41,48,49,8,9,10,11,12,13,14,15,16,17,18,19,20,21,23,25,27,28,29,30,31,32,33,34,35,36,37,38,39,41,42,43,47,48,49,51,9,10,11,12,13,14,15,17,18,19,21,22,23,24,25,26,27,28,30,31,32,33,34,36,38,40,41,43,44,45,48,10,11,12,13,14,15,16,18,20,21,22,23,24,25,26,29,30,34,36,37,38,39,41,43,44,45,47,48,49,50,51,53,11,12,13,14,15,16,17,19,20,21,22,23,25,26,27,28,29,30,31,32,33,34,35,36,37,38,41,42,43,46,47,12,13,14,17,18,19,21,22,23,24,25,26,27,28,29,30,31,32,33,34,36,38,39,40,41,43,44,45,48,49,50,52,14,17,18,19,21,22,23,24,25,26,27,28,29,31,32,33,34,36,38,40,41,43,44,45,48,49,50,14,15,16,17,18,19,20,21,22,23,24,25,26,27,28,29,30,31,32,33,34,35,36,37,38,39,40,41,43,44,45,47,48,49,50,51,52,53,54,56,57,61,15,16,17,18,19,20,21,22,24,26,27,28,30,31,32,33,34,35,37,40,42,46,48,61,17,18,19,21,22,23,24,25,26,27,28,29,30,31,32,33,34,36,38,39,40,41,43,44,45,48,49,50,52,17,18,19,21,22,23,24,25,26,27,28,29,30,31,32,33,34,36,38,39,40,41,43,44,45,48,49,50,52,18,20,21,22,23,24,25,26,29,30,34,36,37,38,39,41,43,44,45,47,48,49,50,51,53,19,20,21,22,23,25,26,27,28,29,30,31,32,33,34,35,36,37,38,41,42,43,44,45,46,47,53,54,20,21,22,23,24,25,26,27,29,30,32,33,34,36,37,38,39,41,43,44,45,47,48,49,50,51,53,21,22,23,24,25,26,27,28,29,30,31,32,33,34,36,37,38,39,40,41,43,44,45,47,48,49,50,51,52,56,22,23,24,26,27,29,30,32,33,34,36,37,38,39,41,43,44,45,53,23,25,27,28,29,30,31,32,33,34,35,36,37,38,39,41,42,43,46,47,48,49,51,55,24,26,27,28,29,30,31,32,33,34,35,36,37,38,39,40,41,42,43,45,46,48,49,52,55,56,61,25,26,27,28,29,30,31,32,33,34,35,36,37,38,39,41,42,43,44,45,46,47,48,49,50,51,53,54,55,26,27,28,29,30,31,32,33,34,35,36,37,38,39,40,41,42,43,44,45,46,48,49,50,52,53,54,55,56,57,58,59,61,27,28,29,30,31,32,33,34,35,36,37,38,39,40,41,42,43,44,46,47,48,49,50,51,52,53,55,56,59,61,28,29,30,31,32,33,34,35,36,37,38,39,40,41,43,44,45,47,48,49,50,51,52,53,54,56,57,61,29,30,32,33,34,36,37,38,39,41,43,44,45,47,48,49,50,51,53,30,31,32,33,34,35,36,37,38,40,41,42,43,44,45,46,47,48,53,54,61,31,32,33,34,35,36,37,38,40,41,42,43,44,45,46,47,48,49,50,53,54,55,61,32,33,34,36,37,38,39,40,41,43,44,45,47,48,49,50,51,52,53,56,34,35,36,37,38,39,40,41,42,43,44,45,46,47,48,49,50,51,52,53,54,55,57,58,61,34,35,36,37,38,39,40,41,42,43,44,45,46,47,48,49,50,51,52,53,54,55,57,58,61,35,36,37,38,39,40,41,42,44,45,46,47,48,49,50,51,52,53,54,55,56,57,59,61,36,37,38,39,40,41,43,44,45,47,48,49,50,51,52,53,56,61,37,39,40,42,44,46,47,48,49,51,52,53,55,56,61,38,39,40,41,42,43,44,45,48,49,50,52,53,54,56,61,39,40,42,43,44,46,47,48,49,51,52,53,55,56,61,40,41,42,43,44,45,46,47,48,49,50,51,53,54,55,61,41,42,43,44,45,46,47,48,49,50,51,53,54,55,42,43,44,45,46,47,48,49,51,52,53,54,55,56,57,58,60,61,43,44,45,47,48,49,50,51,52,53,54,56,57,61,44,45,46,47,48,49,50,51,52,53,54,55,56,57,59,61,45,46,47,48,49,51,52,55,56,61,46,47,48,49,50,51,52,53,55,56,59,61,47,48,49,50,51,52,53,54,56,57,61,48,49,50,52,53,54,55,56,57,58,59,61,53,54,61,53,54,55,61,51,52,53,54,55,56,57,58,60,61,52,53,54,55,56,57,58,59,61,53,54,55,61,55,56,59,61,55,56,59,61,56,57,58,60,61,57,58,61,59,61,59,61,60,61,61];

USEFUL_RES = [{},
	{2,3,5,6,10},
	{1,7,8,9},
	{1,2,3,4,5,6,7,8,9,10},
	{1,2,3,4,5,6,7,8,9,10},
	{2,3,4,5,6,10},
	{1,2,3,5,6,7,8,9,10},
	{1,7,8,9},
	{1,2,3,4,5,6,7,8,9,10},
	{2,3,4,5,6,10},
	{2,3,4,5,6,7,10,11},
	{1,8,9},
	{1,2,3,4,5,6,7,8,9,10},
	{2,3,4,5,6,10},
	{1,2,3,4,5,6,7,8,9,10},
	{2,3,4,5,6,10},
	{1,2,3,4,5,6,8,9,10},
	{2,3,5,6,10},
	{1,8,9},
	{1,2,3,5,6,7,8,9,10},
	{2,3,4,5,6,10},
	{1,2,3,4,5,6,7,8,9,10},
	{2,3,4,5,6,10},
	{1,2,3,5,6,7,8,9,10},
	{2,3,4,5,6,10},
	{1,7,8,9},
	{1,2,3,4,5,6,8,9,10},
	{2,3,4,5,6,10},
	{1,7,8,9},
	{1,2,3,4,5,6,7,8,9,10},
	{2,3,4,5,6,10},
	{2,3,4,5,6,7,10},
	{2,3,5,6,10},
	{1,2,3,4,5,6,8,9,10},
	{1,2,3,5,6,7,8,9,10},
	{1,2,3,5,6,7,8,9,10},
	{2,3,4,5,6,10},
	{1,2,3,5,6,7,8,9,10},
	{1,2,3,5,6,7,8,9,10,11},
	{2,3,4,5,6,10},
	{2,3,5,6,10},
	{2,3,4,5,6,10},
	{1,2,3,4,5,6,7,8,9,10},
	{1,7,8,9},
	{2,3,5,6,10},
	{1,2,3,5,6,7,8,9,10},
	{2,3,4,5,6,10},
	{1,2,3,4,5,6,7,8,9,10},
	{1,2,3,4,5,6,7,8,9,10},
	{2,3,4,5,6,10},
	{1,2,3,5,6,7,8,9,10},
	{2,3,4,5,6,7,10,11},
	{2,3,5,6,7,10,11},
	{1,7,8,9},
	{1,2,3,4,5,6,7,8,9,10},
	{1,2,3,4,5,6,7,8,9,10},
	{2,3,4,5,6,10},
	{1,7,8,9},
	{2,3,4,5,6,10},
	{2,3,4,5,6,10},
	{2,3,4,5,6,10},
	{}];

POTENTIAL_ACT = [{3,4,5,7,8,9,12,13,15,17,19,20,22,24,26,27,29,30,34,35,36,38,39,43,44,46,48,49,51,54,55,56,58},
	{2,4,5,6,7,9,10,11,13,14,15,16,17,18,20,21,22,23,24,25,27,28,30,31,32,33,34,35,36,37,38,39,40,41,42,43,45,46,47,48,49,50,51,52,53,55,56,57,59,60,61},
	{2,4,5,6,7,9,10,11,13,14,15,16,17,18,20,21,22,23,24,25,27,28,30,31,32,33,34,35,36,37,38,39,40,41,42,43,45,46,47,48,49,50,51,52,53,55,56,57,59,60,61},
	{4,5,6,9,10,11,13,14,15,16,17,21,22,23,25,27,28,30,31,32,34,37,40,42,43,47,48,49,50,52,55,56,57,59,60,61},
	{2,4,5,6,7,9,10,11,13,14,15,16,17,18,20,21,22,23,24,25,27,28,30,31,32,33,34,35,36,37,38,39,40,41,42,43,45,46,47,48,49,50,51,52,53,55,56,57,59,60,61},
	{2,4,5,6,7,9,10,11,13,14,15,16,17,18,20,21,22,23,24,25,27,28,30,31,32,33,34,35,36,37,38,39,40,41,42,43,45,46,47,48,49,50,51,52,53,55,56,57,59,60,61},
	{3,4,5,7,8,9,11,13,15,20,22,24,26,29,30,32,35,36,38,39,43,44,46,48,49,51,52,53,54,55,56,58},
	{3,4,5,7,8,9,12,13,15,17,19,20,22,24,26,27,29,30,34,35,36,38,39,43,44,46,48,49,51,54,55,56,58},
	{3,4,5,7,8,9,12,13,15,17,19,20,22,24,26,27,29,30,34,35,36,38,39,43,44,46,48,49,51,54,55,56,58},
	{2,4,5,6,7,9,10,11,13,14,15,16,17,18,20,21,22,23,24,25,27,28,30,31,32,33,34,35,36,37,38,39,40,41,42,43,45,46,47,48,49,50,51,52,53,55,56,57,59,60,61},
	{11,39,52,53}];
